networks/zoo_114_3192/zoo_114_3192-lower.txt
Number of groups: 57
Flow 1: {1 32 0} {32 14 0} {52 5 0} {5 2 0} {2 59 0} 
Flow 1: {14 52 0} Flow 2: {32 3 0} {3 60 0} 
Flow 3: {34 4 0} {4 61 0} 
Flow 3: {32 34 0} Flow 4: {5 62 0} 
Flow 5: {52 6 0} {6 63 0} 
Flow 6: {52 7 0} {7 64 0} 
Flow 7: {5 8 0} {8 65 0} 
Flow 8: {22 9 0} {9 66 0} 
Flow 8: {43 10 0} {10 21 0} {21 22 0} {14 43 0} Flow 9: {10 67 0} 
Flow 10: {10 11 0} {11 68 0} 
Flow 11: {21 20 0} {20 12 0} {12 69 0} 
Flow 12: {27 13 0} {13 70 0} 
Flow 12: {14 27 0} Flow 13: {14 71 0} 
Flow 14: {32 15 0} {15 72 0} 
Flow 15: {32 31 0} {31 16 0} {16 73 0} 
Flow 16: {31 17 0} {17 74 0} 
Flow 17: {14 46 0} {46 18 0} {18 75 0} 
Flow 18: {21 19 0} {19 76 0} 
Flow 19: {20 77 0} 
Flow 20: {21 78 0} 
Flow 21: {22 79 0} 
Flow 22: {21 23 0} {23 80 0} 
Flow 23: {34 24 0} {24 81 0} 
Flow 24: {34 25 0} {25 82 0} 
Flow 25: {52 26 0} {26 83 0} 
Flow 26: {27 84 0} 
Flow 27: {27 28 0} {28 85 0} 
Flow 28: {31 29 0} {29 86 0} 
Flow 29: {31 30 0} {30 87 0} 
Flow 30: {31 88 0} 
Flow 31: {32 89 0} 
Flow 32: {15 33 0} {33 90 0} 
Flow 33: {34 91 0} 
Flow 34: {34 35 0} {35 92 0} 
Flow 35: {34 36 0} {36 93 0} 
Flow 36: {34 37 0} {37 94 0} 
Flow 37: {18 38 0} {38 95 0} 
Flow 38: {46 39 0} {39 96 0} 
Flow 39: {18 40 0} {40 97 0} 
Flow 40: {52 41 0} {41 98 0} 
Flow 41: {10 42 0} {42 99 0} 
Flow 42: {43 100 0} 
Flow 43: {46 44 0} {44 101 0} 
Flow 44: {46 45 0} {45 102 0} 
Flow 45: {46 103 0} 
Flow 46: {46 47 0} {47 104 0} 
Flow 47: {34 48 0} {48 105 0} 
Flow 48: {32 49 0} {49 106 0} 
Flow 49: {15 50 0} {50 107 0} 
Flow 50: {37 51 0} {51 108 0} 
Flow 51: {52 109 0} 
Flow 52: {32 53 0} {53 110 0} 
Flow 53: {14 54 0} {54 111 0} 
Flow 54: {15 55 0} {55 112 0} 
Flow 55: {52 56 0} {56 113 0} 
Flow 56: {43 57 0} {57 114 0} 
Flow 57: {32 1 0} {1 58 0} 
Flow 57: {2 5 0} {5 52 0} {52 14 0} {14 32 0} Flow 59: {52 34 0} Flow 64: {5 10 0} Flow 70: {34 15 0} Flow 71: {14 31 0} Flow 73: {52 18 0} Flow 98: {10 43 0} Flow 108: {34 53 0} Flow 113: {3 32 0} Flow 169: {4 34 0} {34 32 0} Flow 170: {34 52 0} Flow 176: {52 10 0} Flow 184: {53 17 0} Flow 209: {7 42 0} Flow 223: {36 56 0} Flow 281: {6 52 0} Flow 337: {7 52 0} Flow 344: {42 10 0} Flow 393: {8 5 0} Flow 449: {9 22 0} {22 21 0} {21 10 0} {10 52 0} Flow 450: {10 5 0} Flow 455: {42 7 0} Flow 465: {21 18 0} Flow 486: {18 46 0} Flow 488: {10 41 0} Flow 561: {11 10 0} Flow 617: {12 20 0} {20 21 0} Flow 673: {13 27 0} {27 14 0} Flow 707: {27 56 0} {56 36 0} Flow 708: {56 37 0} Flow 785: {15 32 0} Flow 786: {15 34 0} Flow 841: {16 31 0} {31 32 0} Flow 842: {31 14 0} Flow 874: {17 53 0} {53 35 0} Flow 897: {53 32 0} Flow 898: {53 34 0} Flow 909: {17 31 0} Flow 953: {18 52 0} Flow 961: {18 21 0} Flow 1009: {19 21 0} Flow 1233: {23 21 0} Flow 1289: {24 34 0} Flow 1345: {25 34 0} Flow 1401: {26 52 0} Flow 1513: {28 27 0} Flow 1569: {29 31 0} Flow 1625: {30 31 0} Flow 1793: {33 15 0} Flow 1905: {35 34 0} Flow 1921: {35 53 0} Flow 1961: {36 34 0} Flow 1973: {56 27 0} Flow 2017: {37 34 0} Flow 2029: {37 56 0} Flow 2073: {38 18 0} Flow 2129: {39 46 0} {46 14 0} Flow 2185: {40 18 0} Flow 2241: {41 52 0} Flow 2242: {41 10 0} Flow 2353: {43 14 0} Flow 2409: {44 46 0} Flow 2465: {45 46 0} Flow 2577: {47 46 0} Flow 2633: {48 34 0} Flow 2689: {49 32 0} Flow 2745: {50 15 0} Flow 2801: {51 37 0} Flow 2969: {54 14 0} Flow 3025: {55 15 0} Flow 3082: {56 52 0} Flow 3137: {57 43 0} Time taken running everything: 0 seconds
