networks/zoo_114_3192/zoo_114_3192-lower.sol
<?xml version = "1.0" encoding="UTF-8" standalone="yes"?>
<CPLEXSolution version="1.2">
 <header
   problemName="networks/zoo_114_3192/zoo_114_3192.lp"
   solutionName="incumbent"
   solutionIndex="-1"
   objectiveValue="61"
   solutionTypeValue="3"
   solutionTypeString="primal"
   solutionStatusValue="101"
   solutionStatusString="integer optimal solution"
   solutionMethodString="mip"
   primalFeasible="1"
   dualFeasible="1"
   MIPNodes="8443"
   MIPIterations="4078203"
   writeLevel="3"/>
 <quality
   epInt="1.0000000000000001e-05"
   epRHS="9.9999999999999995e-07"
   maxIntInfeas="0"
   maxPrimalInfeas="1.000000082740371e-09"
   maxX="4"
   maxSlack="10"/>
 <variables>
  <variable name="Y(2,3)" index="116" value="1"/>
  <variable name="Y(34,34)" index="3795" value="1"/>
  <variable name="Y(65,10)" index="7305" value="1"/>
  <variable name="Y(160,49)" index="18174" value="1"/>
  <variable name="Y(176,9)" index="19958" value="1"/>
  <variable name="Y(183,16)" index="20763" value="1"/>
  <variable name="Y(194,27)" index="22028" value="1"/>
  <variable name="Y(264,41)" index="30022" value="1"/>
  <variable name="Y(335,52)" index="38127" value="1"/>
  <variable name="Y(358,23)" index="40720" value="1"/>
  <variable name="Y(394,2)" index="44803" value="1"/>
  <variable name="Y(466,19)" index="53028" value="1"/>
  <variable name="Y(469,22)" index="53373" value="1"/>
  <variable name="Y(600,10)" index="68295" value="1"/>
  <variable name="Y(636,21)" index="72410" value="1"/>
  <variable name="Y(708,37)" index="80634" value="1"/>
  <variable name="Y(882,43)" index="100476" value="1"/>
  <variable name="Y(920,25)" index="104790" value="1"/>
  <variable name="Y(925,30)" index="105365" value="1"/>
  <variable name="Y(927,32)" index="105595" value="1"/>
  <variable name="Y(1046,39)" index="119168" value="1"/>
  <variable name="Y(1054,47)" index="120088" value="1"/>
  <variable name="Y(1239,7)" index="141138" value="1"/>
  <variable name="Y(1246,14)" index="141943" value="1"/>
  <variable name="Y(1338,51)" index="152468" value="1"/>
  <variable name="Y(1399,56)" index="159427" value="1"/>
  <variable name="Y(1411,11)" index="160750" value="1"/>
  <variable name="Y(1441,42)" index="164201" value="1"/>
  <variable name="Y(1491,36)" index="169895" value="1"/>
  <variable name="Y(1565,54)" index="178349" value="1"/>
  <variable name="Y(1583,15)" index="180362" value="1"/>
  <variable name="Y(1654,31)" index="188472" value="1"/>
  <variable name="Y(1714,35)" index="195316" value="1"/>
  <variable name="Y(1818,26)" index="207163" value="1"/>
  <variable name="Y(1844,32)" index="210133" value="1"/>
  <variable name="Y(1921,17)" index="218896" value="1"/>
  <variable name="Y(1928,24)" index="219701" value="1"/>
  <variable name="Y(2070,55)" index="235920" value="1"/>
  <variable name="Y(2111,40)" index="240579" value="1"/>
  <variable name="Y(2157,29)" index="245812" value="1"/>
  <variable name="Y(2189,5)" index="249436" value="1"/>
  <variable name="Y(2222,38)" index="253231" value="1"/>
  <variable name="Y(2258,18)" index="257315" value="1"/>
  <variable name="Y(2296,57)" index="261686" value="1"/>
  <variable name="Y(2330,34)" index="265539" value="1"/>
  <variable name="Y(2365,13)" index="269508" value="1"/>
  <variable name="Y(2428,20)" index="276697" value="1"/>
  <variable name="Y(2509,46)" index="285957" value="1"/>
  <variable name="Y(2621,45)" index="298724" value="1"/>
  <variable name="Y(2684,53)" index="305914" value="1"/>
  <variable name="Y(2739,52)" index="312183" value="1"/>
  <variable name="Y(2777,33)" index="316496" value="1"/>
  <variable name="Y(2828,28)" index="322305" value="1"/>
  <variable name="Y(2868,12)" index="326849" value="1"/>
  <variable name="Y(2969,1)" index="338352" value="1"/>
  <variable name="Y(3028,4)" index="345081" value="1"/>
  <variable name="Y(3074,50)" index="350371" value="1"/>
  <variable name="Y(3086,6)" index="351695" value="1"/>
  <variable name="Y(3128,48)" index="356525" value="1"/>
  <variable name="Y(3144,8)" index="358309" value="1"/>
  <variable name="Y(3180,44)" index="362449" value="1"/>
  <variable name="X(1,32,2)" index="363889" value="1"/>
  <variable name="X(1,58,2969)" index="370048" value="1"/>
  <variable name="X(2,5,65)" index="370336" value="1"/>
  <variable name="X(2,59,394)" index="373857" value="1"/>
  <variable name="X(3,32,160)" index="376815" value="1"/>
  <variable name="X(3,60,2)" index="379849" value="1"/>
  <variable name="X(4,34,183)" index="383222" value="1"/>
  <variable name="X(4,61,3028)" index="389259" value="1"/>
  <variable name="X(5,2,394)" index="389817" value="1"/>
  <variable name="X(5,8,3144)" index="395759" value="1"/>
  <variable name="X(5,10,65)" index="395872" value="1"/>
  <variable name="X(5,52,264)" index="399263" value="1"/>
  <variable name="X(5,62,2189)" index="404380" value="1"/>
  <variable name="X(6,52,335)" index="405718" value="1"/>
  <variable name="X(6,63,3086)" index="411661" value="1"/>
  <variable name="X(7,42,1441)" index="413208" value="1"/>
  <variable name="X(7,52,2330)" index="417289" value="1"/>
  <variable name="X(7,64,1239)" index="419390" value="1"/>
  <variable name="X(8,5,394)" index="421737" value="1"/>
  <variable name="X(8,65,3144)" index="427679" value="1"/>
  <variable name="X(9,22,469)" index="428196" value="1"/>
  <variable name="X(9,66,176)" index="431095" value="1"/>
  <variable name="X(10,5,3144)" index="437255" value="1"/>
  <variable name="X(10,11,1411)" index="438714" value="1"/>
  <variable name="X(10,21,358)" index="440853" value="1"/>
  <variable name="X(10,41,600)" index="444287" value="1"/>
  <variable name="X(10,42,1239)" index="448118" value="1"/>
  <variable name="X(10,43,2296)" index="452367" value="1"/>
  <variable name="X(10,52,1246)" index="454509" value="1"/>
  <variable name="X(10,67,65)" index="456520" value="1"/>
  <variable name="X(11,10,600)" index="460247" value="1"/>
  <variable name="X(11,68,1411)" index="464250" value="1"/>
  <variable name="X(12,20,636)" index="466667" value="1"/>
  <variable name="X(12,69,2868)" index="472091" value="1"/>
  <variable name="X(13,27,708)" index="473123" value="1"/>
  <variable name="X(13,70,2365)" index="477972" value="1"/>
  <variable name="X(14,27,194)" index="478993" value="1"/>
  <variable name="X(14,31,2157)" index="484148" value="1"/>
  <variable name="X(14,32,2969)" index="488152" value="1"/>
  <variable name="X(14,43,882)" index="489257" value="1"/>
  <variable name="X(14,46,3180)" index="494747" value="1"/>
  <variable name="X(14,52,2739)" index="497498" value="1"/>
  <variable name="X(14,54,1565)" index="499516" value="1"/>
  <variable name="X(14,71,1246)" index="502389" value="1"/>
  <variable name="X(15,32,1844)" index="506179" value="1"/>
  <variable name="X(15,33,2777)" index="510304" value="1"/>
  <variable name="X(15,34,3028)" index="513747" value="1"/>
  <variable name="X(15,50,3074)" index="516985" value="1"/>
  <variable name="X(15,55,2070)" index="519173" value="1"/>
  <variable name="X(15,72,1583)" index="521878" value="1"/>
  <variable name="X(16,31,882)" index="524369" value="1"/>
  <variable name="X(16,73,183)" index="526862" value="1"/>
  <variable name="X(17,31,925)" index="530796" value="1"/>
  <variable name="X(17,53,1714)" index="534777" value="1"/>
  <variable name="X(17,74,1921)" index="538176" value="1"/>
  <variable name="X(18,21,2428)" index="541875" value="1"/>
  <variable name="X(18,38,2222)" index="544861" value="1"/>
  <variable name="X(18,40,2111)" index="547942" value="1"/>
  <variable name="X(18,46,1054)" index="550077" value="1"/>
  <variable name="X(18,52,2189)" index="554404" value="1"/>
  <variable name="X(18,75,2258)" index="557665" value="1"/>
  <variable name="X(19,21,1054)" index="559653" value="1"/>
  <variable name="X(19,76,466)" index="562257" value="1"/>
  <variable name="X(20,12,2868)" index="567851" value="1"/>
  <variable name="X(20,21,636)" index="568811" value="1"/>
  <variable name="X(20,77,2428)" index="573795" value="1"/>
  <variable name="X(21,10,1239)" index="575798" value="1"/>
  <variable name="X(21,18,1054)" index="578805" value="1"/>
  <variable name="X(21,19,466)" index="581409" value="1"/>
  <variable name="X(21,20,2428)" index="586563" value="1"/>
  <variable name="X(21,22,176)" index="587503" value="1"/>
  <variable name="X(21,23,358)" index="590877" value="1"/>
  <variable name="X(21,78,636)" index="594347" value="1"/>
  <variable name="X(22,9,176)" index="597079" value="1"/>
  <variable name="X(22,21,466)" index="600561" value="1"/>
  <variable name="X(22,79,469)" index="603756" value="1"/>
  <variable name="X(23,21,1239)" index="607718" value="1"/>
  <variable name="X(23,80,358)" index="610029" value="1"/>
  <variable name="X(24,34,1338)" index="614201" value="1"/>
  <variable name="X(24,81,1928)" index="617983" value="1"/>
  <variable name="X(25,34,1399)" index="620646" value="1"/>
  <variable name="X(25,82,920)" index="623359" value="1"/>
  <variable name="X(26,52,1441)" index="627072" value="1"/>
  <variable name="X(26,83,1818)" index="630641" value="1"/>
  <variable name="X(27,13,2365)" index="634380" value="1"/>
  <variable name="X(27,14,1565)" index="636772" value="1"/>
  <variable name="X(27,28,2828)" index="641227" value="1"/>
  <variable name="X(27,56,708)" index="642299" value="1"/>
  <variable name="X(27,84,194)" index="644977" value="1"/>
  <variable name="X(28,27,1565)" index="649540" value="1"/>
  <variable name="X(28,85,2828)" index="653995" value="1"/>
  <variable name="X(29,31,1583)" index="655942" value="1"/>
  <variable name="X(29,86,2157)" index="659708" value="1"/>
  <variable name="X(30,31,1654)" index="662397" value="1"/>
  <variable name="X(30,87,925)" index="664860" value="1"/>
  <variable name="X(31,14,882)" index="668009" value="1"/>
  <variable name="X(31,16,183)" index="670502" value="1"/>
  <variable name="X(31,17,1714)" index="675225" value="1"/>
  <variable name="X(31,29,2157)" index="678860" value="1"/>
  <variable name="X(31,30,925)" index="680820" value="1"/>
  <variable name="X(31,32,1583)" index="684670" value="1"/>
  <variable name="X(31,88,1654)" index="687933" value="1"/>
  <variable name="X(32,1,2969)" index="692440" value="1"/>
  <variable name="X(32,3,2)" index="692665" value="1"/>
  <variable name="X(32,14,2739)" index="698594" value="1"/>
  <variable name="X(32,15,1583)" index="700630" value="1"/>
  <variable name="X(32,31,183)" index="702422" value="1"/>
  <variable name="X(32,34,34)" index="705465" value="1"/>
  <variable name="X(32,49,160)" index="708783" value="1"/>
  <variable name="X(32,53,1844)" index="713659" value="1"/>
  <variable name="X(32,89,927)" index="715934" value="1"/>
  <variable name="X(33,15,1844)" index="720043" value="1"/>
  <variable name="X(33,90,2777)" index="724168" value="1"/>
  <variable name="X(34,4,3028)" index="727611" value="1"/>
  <variable name="X(34,15,2070)" index="729845" value="1"/>
  <variable name="X(34,24,1928)" index="732895" value="1"/>
  <variable name="X(34,25,920)" index="735079" value="1"/>
  <variable name="X(34,32,183)" index="737534" value="1"/>
  <variable name="X(34,35,34)" index="740577" value="1"/>
  <variable name="X(34,36,1399)" index="745134" value="1"/>
  <variable name="X(34,37,1338)" index="748265" value="1"/>
  <variable name="X(34,48,3128)" index="753247" value="1"/>
  <variable name="X(34,52,1818)" index="755129" value="1"/>
  <variable name="X(34,53,2684)" index="759187" value="1"/>
  <variable name="X(34,91,2330)" index="762025" value="1"/>
  <variable name="X(35,34,1928)" index="764815" value="1"/>
  <variable name="X(35,53,1921)" index="768000" value="1"/>
  <variable name="X(35,92,1714)" index="770985" value="1"/>
  <variable name="X(36,34,3128)" index="775591" value="1"/>
  <variable name="X(36,56,1399)" index="777054" value="1"/>
  <variable name="X(36,93,1491)" index="780338" value="1"/>
  <variable name="X(37,34,2070)" index="784109" value="1"/>
  <variable name="X(37,51,1338)" index="786569" value="1"/>
  <variable name="X(37,56,2828)" index="791251" value="1"/>
  <variable name="X(37,94,708)" index="792323" value="1"/>
  <variable name="X(38,18,2111)" index="796918" value="1"/>
  <variable name="X(38,95,2222)" index="800221" value="1"/>
  <variable name="X(39,46,2157)" index="803348" value="1"/>
  <variable name="X(39,96,1046)" index="805429" value="1"/>
  <variable name="X(40,18,2222)" index="809797" value="1"/>
  <variable name="X(40,97,2111)" index="812878" value="1"/>
  <variable name="X(41,10,2296)" index="816255" value="1"/>
  <variable name="X(41,52,2258)" index="819409" value="1"/>
  <variable name="X(41,98,264)" index="820607" value="1"/>
  <variable name="X(42,7,1239)" index="824774" value="1"/>
  <variable name="X(42,10,358)" index="827085" value="1"/>
  <variable name="X(42,99,1441)" index="831360" value="1"/>
  <variable name="X(43,10,3144)" index="836255" value="1"/>
  <variable name="X(43,14,3180)" index="839483" value="1"/>
  <variable name="X(43,57,2296)" index="841791" value="1"/>
  <variable name="X(43,100,882)" index="843569" value="1"/>
  <variable name="X(44,46,2428)" index="848307" value="1"/>
  <variable name="X(44,101,3180)" index="852251" value="1"/>
  <variable name="X(45,46,2509)" index="854772" value="1"/>
  <variable name="X(45,102,2621)" index="858076" value="1"/>
  <variable name="X(46,14,2157)" index="860804" value="1"/>
  <variable name="X(46,18,2428)" index="864267" value="1"/>
  <variable name="X(46,39,1046)" index="866077" value="1"/>
  <variable name="X(46,44,3180)" index="871403" value="1"/>
  <variable name="X(46,45,2621)" index="874036" value="1"/>
  <variable name="X(46,47,1054)" index="875661" value="1"/>
  <variable name="X(46,103,2509)" index="880308" value="1"/>
  <variable name="X(47,46,2621)" index="883612" value="1"/>
  <variable name="X(47,104,1054)" index="885237" value="1"/>
  <variable name="X(48,34,2684)" index="890059" value="1"/>
  <variable name="X(48,105,3128)" index="893695" value="1"/>
  <variable name="X(49,32,2739)" index="896498" value="1"/>
  <variable name="X(49,106,160)" index="897111" value="1"/>
  <variable name="X(50,15,2777)" index="902920" value="1"/>
  <variable name="X(50,107,3074)" index="906409" value="1"/>
  <variable name="X(51,37,2828)" index="909355" value="1"/>
  <variable name="X(51,108,1338)" index="911057" value="1"/>
  <variable name="X(52,5,2189)" index="915100" value="1"/>
  <variable name="X(52,6,3086)" index="919189" value="1"/>
  <variable name="X(52,7,1441)" index="920736" value="1"/>
  <variable name="X(52,10,1411)" index="923898" value="1"/>
  <variable name="X(52,14,1246)" index="926925" value="1"/>
  <variable name="X(52,18,2258)" index="931129" value="1"/>
  <variable name="X(52,26,1818)" index="933881" value="1"/>
  <variable name="X(52,34,2330)" index="937585" value="1"/>
  <variable name="X(52,41,264)" index="938711" value="1"/>
  <variable name="X(52,56,335)" index="941974" value="1"/>
  <variable name="X(52,109,2739)" index="947570" value="1"/>
  <variable name="X(53,17,1921)" index="949944" value="1"/>
  <variable name="X(53,32,927)" index="952142" value="1"/>
  <variable name="X(53,34,920)" index="955327" value="1"/>
  <variable name="X(53,35,1714)" index="959313" value="1"/>
  <variable name="X(53,110,2684)" index="963475" value="1"/>
  <variable name="X(54,14,2969)" index="966952" value="1"/>
  <variable name="X(54,111,1565)" index="968740" value="1"/>
  <variable name="X(55,15,3074)" index="973441" value="1"/>
  <variable name="X(55,112,2070)" index="975629" value="1"/>
  <variable name="X(56,27,2828)" index="979579" value="1"/>
  <variable name="X(56,36,1491)" index="981434" value="1"/>
  <variable name="X(56,37,708)" index="983843" value="1"/>
  <variable name="X(56,52,3086)" index="989413" value="1"/>
  <variable name="X(56,113,1399)" index="990918" value="1"/>
  <variable name="X(57,43,3144)" index="995855" value="1"/>
  <variable name="X(57,114,2296)" index="998199" value="1"/>
  <variable name="C(2,32)" index="999103" value="1"/>
  <variable name="C(2,3)" index="999104" value="2"/>
  <variable name="C(34,34)" index="999259" value="1"/>
  <variable name="C(65,5)" index="999398" value="1"/>
  <variable name="C(65,10)" index="999399" value="2"/>
  <variable name="C(160,32)" index="999868" value="1"/>
  <variable name="C(160,49)" index="999869" value="2"/>
  <variable name="C(176,22)" index="999939" value="1"/>
  <variable name="C(176,9)" index="999940" value="2"/>
  <variable name="C(183,34)" index="999971" value="1"/>
  <variable name="C(183,32)" index="999972" value="2"/>
  <variable name="C(183,31)" index="999973" value="3"/>
  <variable name="C(183,16)" index="999974" value="4"/>
  <variable name="C(194,27)" index="1000026" value="1"/>
  <variable name="C(264,52)" index="1000313" value="1"/>
  <variable name="C(264,41)" index="1000314" value="2"/>
  <variable name="C(335,52)" index="1000613" value="1"/>
  <variable name="C(358,10)" index="1000713" value="1"/>
  <variable name="C(358,21)" index="1000714" value="2"/>
  <variable name="C(358,23)" index="1000715" value="3"/>
  <variable name="C(394,5)" index="1000864" value="1"/>
  <variable name="C(394,2)" index="1000865" value="2"/>
  <variable name="C(466,21)" index="1001244" value="1"/>
  <variable name="C(466,19)" index="1001245" value="2"/>
  <variable name="C(469,22)" index="1001254" value="1"/>
  <variable name="C(600,10)" index="1001883" value="1"/>
  <variable name="C(636,20)" index="1002078" value="1"/>
  <variable name="C(636,21)" index="1002079" value="2"/>
  <variable name="C(708,27)" index="1002501" value="1"/>
  <variable name="C(708,56)" index="1002502" value="2"/>
  <variable name="C(708,37)" index="1002503" value="3"/>
  <variable name="C(882,31)" index="1003235" value="1"/>
  <variable name="C(882,14)" index="1003236" value="2"/>
  <variable name="C(882,43)" index="1003237" value="3"/>
  <variable name="C(920,34)" index="1003430" value="1"/>
  <variable name="C(920,25)" index="1003431" value="2"/>
  <variable name="C(925,31)" index="1003450" value="1"/>
  <variable name="C(925,30)" index="1003451" value="2"/>
  <variable name="C(927,32)" index="1003456" value="1"/>
  <variable name="C(1046,39)" index="1003980" value="1"/>
  <variable name="C(1054,21)" index="1004012" value="1"/>
  <variable name="C(1054,18)" index="1004013" value="2"/>
  <variable name="C(1054,46)" index="1004014" value="3"/>
  <variable name="C(1054,47)" index="1004015" value="4"/>
  <variable name="C(1239,21)" index="1004937" value="1"/>
  <variable name="C(1239,10)" index="1004938" value="2"/>
  <variable name="C(1239,42)" index="1004939" value="3"/>
  <variable name="C(1239,7)" index="1004940" value="4"/>
  <variable name="C(1246,52)" index="1004971" value="1"/>
  <variable name="C(1246,14)" index="1004972" value="2"/>
  <variable name="C(1338,34)" index="1005423" value="1"/>
  <variable name="C(1338,37)" index="1005424" value="2"/>
  <variable name="C(1338,51)" index="1005425" value="3"/>
  <variable name="C(1399,34)" index="1005696" value="1"/>
  <variable name="C(1399,36)" index="1005697" value="2"/>
  <variable name="C(1399,56)" index="1005698" value="3"/>
  <variable name="C(1411,10)" index="1005747" value="1"/>
  <variable name="C(1411,11)" index="1005748" value="2"/>
  <variable name="C(1441,52)" index="1005876" value="1"/>
  <variable name="C(1441,7)" index="1005877" value="2"/>
  <variable name="C(1441,42)" index="1005878" value="3"/>
  <variable name="C(1491,36)" index="1006097" value="1"/>
  <variable name="C(1565,27)" index="1006456" value="1"/>
  <variable name="C(1565,14)" index="1006457" value="2"/>
  <variable name="C(1565,54)" index="1006458" value="3"/>
  <variable name="C(1583,31)" index="1006549" value="1"/>
  <variable name="C(1583,32)" index="1006550" value="2"/>
  <variable name="C(1583,15)" index="1006551" value="3"/>
  <variable name="C(1654,31)" index="1006903" value="1"/>
  <variable name="C(1714,17)" index="1007163" value="1"/>
  <variable name="C(1714,53)" index="1007164" value="2"/>
  <variable name="C(1714,35)" index="1007165" value="3"/>
  <variable name="C(1818,52)" index="1007600" value="1"/>
  <variable name="C(1818,26)" index="1007601" value="2"/>
  <variable name="C(1844,15)" index="1007723" value="1"/>
  <variable name="C(1844,32)" index="1007724" value="2"/>
  <variable name="C(1921,53)" index="1008019" value="1"/>
  <variable name="C(1921,17)" index="1008020" value="2"/>
  <variable name="C(1928,34)" index="1008055" value="1"/>
  <variable name="C(1928,24)" index="1008056" value="2"/>
  <variable name="C(2070,34)" index="1008675" value="1"/>
  <variable name="C(2070,15)" index="1008676" value="2"/>
  <variable name="C(2070,55)" index="1008677" value="3"/>
  <variable name="C(2111,18)" index="1008869" value="1"/>
  <variable name="C(2111,40)" index="1008870" value="2"/>
  <variable name="C(2157,46)" index="1009095" value="1"/>
  <variable name="C(2157,14)" index="1009096" value="2"/>
  <variable name="C(2157,31)" index="1009097" value="3"/>
  <variable name="C(2157,29)" index="1009098" value="4"/>
  <variable name="C(2189,52)" index="1009252" value="1.0000000010000001"/>
  <variable name="C(2189,5)" index="1009253" value="2.0000000020000002"/>
  <variable name="C(2222,18)" index="1009407" value="1"/>
  <variable name="C(2222,38)" index="1009408" value="2"/>
  <variable name="C(2258,52)" index="1009563" value="1"/>
  <variable name="C(2258,18)" index="1009564" value="2"/>
  <variable name="C(2296,10)" index="1009718" value="1"/>
  <variable name="C(2296,43)" index="1009719" value="2"/>
  <variable name="C(2296,57)" index="1009720" value="3"/>
  <variable name="C(2330,52)" index="1009875" value="1"/>
  <variable name="C(2330,34)" index="1009876" value="2"/>
  <variable name="C(2365,13)" index="1010037" value="1"/>
  <variable name="C(2428,46)" index="1010308" value="1"/>
  <variable name="C(2428,18)" index="1010309" value="2"/>
  <variable name="C(2428,21)" index="1010310" value="3"/>
  <variable name="C(2428,20)" index="1010311" value="4"/>
  <variable name="C(2509,46)" index="1010705" value="1"/>
  <variable name="C(2621,46)" index="1011202" value="1"/>
  <variable name="C(2621,45)" index="1011203" value="2"/>
  <variable name="C(2684,34)" index="1011492" value="1"/>
  <variable name="C(2684,53)" index="1011493" value="2"/>
  <variable name="C(2739,32)" index="1011754" value="1"/>
  <variable name="C(2739,14)" index="1011755" value="2"/>
  <variable name="C(2739,52)" index="1011756" value="3"/>
  <variable name="C(2777,15)" index="1011947" value="1"/>
  <variable name="C(2777,33)" index="1011948" value="2"/>
  <variable name="C(2828,37)" index="1012211" value="1"/>
  <variable name="C(2828,56)" index="1012212" value="2"/>
  <variable name="C(2828,27)" index="1012213" value="3"/>
  <variable name="C(2828,28)" index="1012214" value="4"/>
  <variable name="C(2868,12)" index="1012397" value="1"/>
  <variable name="C(2969,14)" index="1012776" value="1"/>
  <variable name="C(2969,32)" index="1012777" value="2"/>
  <variable name="C(2969,1)" index="1012778" value="3"/>
  <variable name="C(3028,34)" index="1013040" value="1"/>
  <variable name="C(3028,4)" index="1013041" value="2"/>
  <variable name="C(3074,15)" index="1013276" value="1"/>
  <variable name="C(3074,50)" index="1013277" value="2"/>
  <variable name="C(3086,52)" index="1013329" value="1"/>
  <variable name="C(3086,6)" index="1013330" value="2"/>
  <variable name="C(3128,34)" index="1013499" value="1"/>
  <variable name="C(3128,48)" index="1013500" value="2"/>
  <variable name="C(3144,43)" index="1013570" value="1"/>
  <variable name="C(3144,10)" index="1013571" value="2"/>
  <variable name="C(3144,5)" index="1013572" value="3"/>
  <variable name="C(3144,8)" index="1013573" value="4"/>
  <variable name="C(3180,14)" index="1013747" value="1"/>
  <variable name="C(3180,46)" index="1013748" value="2"/>
  <variable name="C(3180,44)" index="1013749" value="3"/>
 </variables>
</CPLEXSolution>
